Output/Exact/Random_025_01_4.lp.out
CPU Time for Parsing input: 0.002682s (0.002682s total since program start)
CPU Time for solving: 0.91614s (0.918822s total since program start)

Value of objective function: 37.00000000
